p edge 900 2160
e 1 353
e 1 354
e 1 833
e 1 834
e 1 425
e 1 458
e 1 457
e 1 426
e 2 355
e 2 356
e 2 459
e 2 428
e 2 835
e 2 836
e 2 427
e 2 460
e 3 621
e 3 622
e 3 305
e 3 306
e 3 437
e 3 246
e 3 245
e 3 509
e 3 510
e 3 438
e 4 247
e 4 248
e 4 623
e 4 624
e 4 307
e 4 308
e 4 439
e 4 440
e 4 511
e 4 512
e 5 809
e 5 810
e 5 345
e 5 693
e 5 694
e 5 346
e 5 185
e 5 186
e 6 188
e 6 811
e 6 812
e 6 695
e 6 696
e 6 187
e 6 348
e 6 347
e 7 289
e 7 290
e 7 293
e 7 294
e 7 265
e 7 266
e 7 793
e 7 890
e 7 273
e 7 274
e 7 645
e 7 889
e 7 794
e 7 313
e 7 314
e 7 413
e 7 414
e 7 646
e 8 291
e 8 292
e 8 647
e 8 295
e 8 296
e 8 796
e 8 267
e 8 268
e 8 648
e 8 891
e 8 275
e 8 276
e 8 892
e 8 315
e 8 316
e 8 795
e 8 415
e 8 416
e 9 449
e 9 450
e 9 681
e 9 682
e 9 777
e 9 497
e 9 498
e 9 597
e 9 598
e 9 778
e 9 793
e 9 725
e 9 795
e 9 445
e 9 446
e 9 726
e 10 451
e 10 452
e 10 727
e 10 780
e 10 683
e 10 684
e 10 728
e 10 499
e 10 500
e 10 599
e 10 600
e 10 794
e 10 796
e 10 779
e 10 447
e 10 448
e 11 801
e 11 305
e 11 802
e 11 521
e 11 522
e 11 209
e 11 210
e 11 307
e 11 841
e 11 842
e 11 797
e 11 798
e 12 844
e 12 803
e 12 804
e 12 308
e 12 523
e 12 524
e 12 306
e 12 211
e 12 212
e 12 843
e 12 799
e 12 800
e 13 465
e 13 229
e 13 230
e 13 466
e 13 241
e 13 242
e 13 661
e 13 662
e 13 605
e 13 606
e 14 231
e 14 232
e 14 467
e 14 468
e 14 243
e 14 244
e 14 663
e 14 664
e 14 607
e 14 608
e 15 897
e 15 898
e 15 453
e 15 454
e 15 862
e 15 393
e 15 285
e 15 813
e 15 814
e 15 861
e 15 286
e 15 753
e 15 754
e 15 394
e 15 281
e 15 282
e 15 221
e 15 222
e 16 864
e 16 815
e 16 863
e 16 455
e 16 456
e 16 395
e 16 396
e 16 899
e 16 224
e 16 816
e 16 755
e 16 756
e 16 223
e 16 283
e 16 284
e 16 900
e 16 287
e 16 288
e 17 641
e 17 642
e 17 261
e 17 262
e 17 617
e 17 618
e 17 857
e 17 858
e 17 729
e 17 730
e 18 643
e 18 644
e 18 263
e 18 264
e 18 619
e 18 620
e 18 860
e 18 731
e 18 732
e 18 859
e 19 421
e 19 422
e 19 361
e 19 362
e 19 741
e 19 689
e 19 690
e 19 806
e 19 405
e 19 406
e 19 805
e 19 409
e 19 410
e 19 742
e 20 807
e 20 743
e 20 423
e 20 424
e 20 363
e 20 364
e 20 744
e 20 808
e 20 691
e 20 692
e 20 407
e 20 408
e 20 411
e 20 412
e 21 293
e 21 295
e 21 749
e 21 750
e 21 633
e 21 634
e 21 701
e 21 702
e 22 294
e 22 296
e 22 751
e 22 752
e 22 635
e 22 636
e 22 703
e 22 704
e 23 609
e 23 610
e 23 265
e 23 267
e 23 361
e 23 537
e 23 538
e 23 363
e 24 611
e 24 268
e 24 266
e 24 364
e 24 612
e 24 362
e 24 539
e 24 540
e 25 257
e 25 258
e 25 322
e 25 713
e 25 714
e 25 813
e 25 815
e 25 321
e 25 821
e 25 822
e 25 665
e 25 666
e 25 573
e 25 574
e 26 816
e 26 259
e 26 324
e 26 715
e 26 716
e 26 323
e 26 814
e 26 260
e 26 823
e 26 824
e 26 667
e 26 668
e 26 575
e 26 576
e 27 229
e 27 423
e 27 231
e 27 233
e 27 234
e 27 397
e 27 398
e 27 537
e 27 421
e 27 539
e 28 230
e 28 232
e 28 235
e 28 236
e 28 399
e 28 400
e 28 538
e 28 424
e 28 540
e 28 422
e 29 225
e 29 226
e 29 355
e 29 581
e 29 582
e 29 681
e 29 683
e 29 461
e 29 462
e 29 353
e 29 533
e 29 534
e 30 354
e 30 227
e 30 356
e 30 583
e 30 584
e 30 682
e 30 684
e 30 463
e 30 464
e 30 228
e 30 535
e 30 536
e 31 566
e 31 325
e 31 326
e 31 777
e 31 717
e 31 779
e 31 718
e 31 237
e 31 238
e 31 565
e 31 209
e 31 211
e 31 277
e 31 278
e 31 549
e 31 477
e 31 478
e 31 550
e 32 780
e 32 551
e 32 327
e 32 328
e 32 568
e 32 552
e 32 778
e 32 239
e 32 240
e 32 210
e 32 212
e 32 719
e 32 279
e 32 280
e 32 567
e 32 720
e 32 479
e 32 480
e 33 385
e 33 386
e 33 197
e 33 198
e 33 583
e 33 296
e 33 649
e 33 650
e 33 881
e 33 581
e 33 882
e 33 677
e 33 870
e 33 869
e 33 313
e 33 293
e 33 315
e 33 221
e 33 223
e 33 678
e 34 199
e 34 387
e 34 388
e 34 652
e 34 294
e 34 295
e 34 200
e 34 884
e 34 651
e 34 584
e 34 680
e 34 582
e 34 679
e 34 883
e 34 872
e 34 871
e 34 314
e 34 316
e 34 222
e 34 224
e 35 673
e 35 674
e 35 770
e 35 706
e 35 705
e 35 769
e 35 761
e 35 762
e 35 413
e 35 415
e 36 707
e 36 676
e 36 675
e 36 771
e 36 708
e 36 772
e 36 763
e 36 764
e 36 414
e 36 416
e 37 769
e 37 771
e 37 521
e 37 877
e 37 201
e 37 202
e 37 523
e 37 364
e 37 717
e 37 878
e 37 719
e 37 361
e 37 245
e 37 247
e 37 505
e 37 506
e 37 797
e 37 799
e 38 798
e 38 770
e 38 524
e 38 522
e 38 362
e 38 363
e 38 204
e 38 718
e 38 879
e 38 720
e 38 880
e 38 772
e 38 246
e 38 248
e 38 507
e 38 508
e 38 203
e 38 800
e 39 481
e 39 482
e 39 643
e 39 341
e 39 182
e 39 181
e 39 641
e 39 317
e 39 318
e 39 342
e 40 642
e 40 483
e 40 484
e 40 183
e 40 184
e 40 644
e 40 343
e 40 344
e 40 319
e 40 320
e 41 837
e 41 838
e 41 761
e 41 369
e 41 370
e 41 565
e 41 567
e 41 473
e 41 474
e 41 763
e 42 764
e 42 839
e 42 840
e 42 371
e 42 372
e 42 566
e 42 568
e 42 762
e 42 475
e 42 476
e 43 657
e 43 658
e 43 661
e 43 502
e 43 663
e 43 501
e 44 504
e 44 659
e 44 660
e 44 662
e 44 503
e 44 664
e 45 545
e 45 546
e 45 765
e 45 585
e 45 586
e 45 729
e 45 731
e 45 766
e 45 401
e 45 402
e 45 213
e 45 214
e 45 505
e 45 757
e 45 507
e 45 349
e 45 350
e 45 758
e 46 730
e 46 547
e 46 548
e 46 759
e 46 732
e 46 587
e 46 588
e 46 760
e 46 403
e 46 404
e 46 767
e 46 215
e 46 216
e 46 506
e 46 508
e 46 768
e 46 351
e 46 352
e 47 833
e 47 835
e 47 229
e 47 839
e 47 232
e 47 617
e 47 685
e 47 619
e 47 333
e 47 334
e 47 686
e 47 533
e 47 886
e 47 535
e 47 885
e 47 837
e 47 445
e 47 447
e 48 834
e 48 836
e 48 230
e 48 231
e 48 840
e 48 618
e 48 887
e 48 620
e 48 335
e 48 336
e 48 888
e 48 534
e 48 838
e 48 536
e 48 688
e 48 687
e 48 446
e 48 448
e 49 225
e 49 865
e 49 227
e 49 453
e 49 455
e 49 569
e 49 489
e 49 490
e 49 843
e 49 561
e 49 562
e 49 841
e 49 570
e 49 249
e 49 250
e 49 349
e 49 351
e 49 866
e 50 844
e 50 226
e 50 867
e 50 228
e 50 454
e 50 572
e 50 456
e 50 868
e 50 842
e 50 491
e 50 492
e 50 571
e 50 563
e 50 564
e 50 251
e 50 252
e 50 350
e 50 352
e 51 613
e 51 614
e 51 743
e 51 873
e 51 653
e 51 365
e 51 366
e 51 654
e 51 529
e 51 530
e 51 741
e 51 874
e 51 697
e 51 698
e 51 509
e 51 511
e 52 700
e 52 742
e 52 615
e 52 616
e 52 875
e 52 744
e 52 367
e 52 368
e 52 531
e 52 532
e 52 655
e 52 876
e 52 699
e 52 656
e 52 510
e 52 512
e 53 741
e 53 744
e 53 425
e 53 427
e 53 881
e 53 883
e 53 885
e 53 887
e 53 377
e 53 378
e 53 669
e 53 670
e 54 742
e 54 743
e 54 426
e 54 428
e 54 882
e 54 884
e 54 886
e 54 888
e 54 379
e 54 380
e 54 671
e 54 672
e 55 881
e 55 645
e 55 647
e 55 397
e 55 557
e 55 558
e 55 399
e 55 785
e 55 786
e 55 884
e 55 757
e 55 759
e 55 697
e 55 699
e 56 700
e 56 646
e 56 648
e 56 398
e 56 559
e 56 560
e 56 882
e 56 787
e 56 788
e 56 758
e 56 760
e 56 698
e 56 400
e 56 883
e 57 801
e 57 803
e 57 489
e 57 491
e 57 536
e 57 657
e 57 659
e 57 245
e 57 248
e 57 409
e 57 533
e 57 411
e 58 802
e 58 804
e 58 535
e 58 490
e 58 492
e 58 658
e 58 660
e 58 246
e 58 247
e 58 410
e 58 412
e 58 534
e 59 417
e 59 418
e 59 677
e 59 679
e 59 845
e 59 701
e 59 461
e 59 846
e 59 463
e 59 697
e 59 565
e 59 695
e 59 568
e 59 185
e 59 693
e 59 187
e 59 700
e 59 509
e 59 703
e 59 512
e 60 702
e 60 419
e 60 420
e 60 678
e 60 680
e 60 698
e 60 848
e 60 462
e 60 847
e 60 464
e 60 704
e 60 566
e 60 567
e 60 696
e 60 186
e 60 699
e 60 188
e 60 510
e 60 511
e 60 694
e 61 225
e 61 465
e 61 467
e 61 228
e 62 226
e 62 227
e 62 468
e 62 466
e 63 385
e 63 387
e 63 613
e 63 615
e 63 525
e 63 461
e 63 526
e 63 464
e 63 337
e 63 338
e 63 541
e 63 542
e 64 386
e 64 388
e 64 614
e 64 616
e 64 462
e 64 463
e 64 528
e 64 339
e 64 340
e 64 527
e 64 543
e 64 544
e 65 653
e 65 333
e 65 397
e 65 335
e 65 400
e 65 601
e 65 655
e 65 249
e 65 602
e 65 251
e 66 654
e 66 604
e 66 398
e 66 399
e 66 334
e 66 336
e 66 250
e 66 603
e 66 252
e 66 656
e 67 325
e 67 327
e 67 584
e 67 201
e 67 203
e 67 785
e 67 377
e 67 787
e 67 501
e 67 503
e 67 281
e 67 581
e 67 283
e 67 413
e 67 379
e 67 416
e 68 380
e 68 504
e 68 326
e 68 583
e 68 328
e 68 202
e 68 204
e 68 786
e 68 788
e 68 502
e 68 378
e 68 282
e 68 284
e 68 414
e 68 415
e 68 582
e 69 449
e 69 737
e 69 451
e 69 738
e 69 713
e 69 715
e 69 897
e 69 899
e 70 450
e 70 739
e 70 452
e 70 898
e 70 714
e 70 716
e 70 740
e 70 900
e 71 689
e 71 691
e 71 497
e 71 569
e 71 499
e 71 341
e 71 630
e 71 343
e 71 313
e 71 629
e 71 571
e 71 316
e 71 381
e 71 382
e 72 570
e 72 690
e 72 692
e 72 632
e 72 498
e 72 500
e 72 342
e 72 631
e 72 344
e 72 314
e 72 315
e 72 572
e 72 383
e 72 384
e 73 685
e 73 261
e 73 710
e 73 263
e 73 297
e 73 298
e 73 269
e 73 270
e 73 687
e 73 734
e 73 369
e 73 371
e 73 709
e 73 733
e 73 217
e 73 218
e 73 189
e 73 190
e 73 349
e 73 352
e 74 735
e 74 712
e 74 262
e 74 711
e 74 264
e 74 299
e 74 300
e 74 686
e 74 271
e 74 272
e 74 370
e 74 688
e 74 372
e 74 351
e 74 736
e 74 219
e 74 220
e 74 350
e 74 191
e 74 192
e 75 193
e 75 194
e 75 873
e 75 875
e 75 721
e 75 722
e 75 437
e 75 439
e 75 217
e 75 219
e 76 195
e 76 196
e 76 874
e 76 876
e 76 723
e 76 724
e 76 438
e 76 440
e 76 218
e 76 220
e 77 513
e 77 514
e 77 453
e 77 456
e 77 265
e 77 268
e 77 273
e 77 275
e 77 788
e 77 665
e 77 667
e 77 785
e 78 515
e 78 516
e 78 454
e 78 455
e 78 786
e 78 266
e 78 267
e 78 274
e 78 787
e 78 276
e 78 666
e 78 668
e 79 673
e 79 675
e 79 557
e 79 559
e 79 597
e 79 599
e 79 281
e 79 284
e 79 317
e 79 319
e 80 674
e 80 676
e 80 558
e 80 560
e 80 598
e 80 600
e 80 282
e 80 283
e 80 318
e 80 320
e 81 813
e 81 781
e 81 782
e 81 816
e 81 753
e 81 755
e 81 725
e 81 727
e 81 189
e 81 191
e 82 815
e 82 814
e 82 783
e 82 784
e 82 754
e 82 756
e 82 726
e 82 728
e 82 190
e 82 192
e 83 197
e 83 199
e 83 649
e 83 651
e 83 825
e 83 337
e 83 793
e 83 339
e 83 601
e 83 826
e 83 603
e 83 796
e 83 541
e 83 543
e 84 828
e 84 198
e 84 200
e 84 650
e 84 652
e 84 338
e 84 340
e 84 794
e 84 827
e 84 602
e 84 795
e 84 604
e 84 542
e 84 544
e 85 257
e 85 259
e 85 549
e 85 823
e 85 551
e 85 713
e 85 716
e 85 241
e 85 243
e 85 277
e 85 279
e 85 821
e 85 669
e 85 671
e 86 822
e 86 258
e 86 260
e 86 550
e 86 552
e 86 714
e 86 715
e 86 824
e 86 242
e 86 244
e 86 278
e 86 280
e 86 670
e 86 672
e 87 545
e 87 547
e 87 668
e 87 589
e 87 237
e 87 590
e 87 239
e 87 665
e 87 505
e 87 508
e 88 546
e 88 548
e 88 238
e 88 591
e 88 240
e 88 666
e 88 506
e 88 507
e 88 592
e 88 667
e 89 385
e 89 388
e 89 613
e 89 616
e 89 717
e 89 493
e 89 494
e 89 720
e 89 689
e 89 692
e 89 789
e 89 790
e 89 824
e 89 821
e 90 386
e 90 387
e 90 614
e 90 615
e 90 718
e 90 495
e 90 496
e 90 690
e 90 691
e 90 823
e 90 719
e 90 791
e 90 792
e 90 822
e 91 705
e 91 707
e 91 233
e 91 235
e 91 457
e 91 789
e 91 791
e 91 459
e 92 706
e 92 708
e 92 234
e 92 236
e 92 792
e 92 790
e 92 458
e 92 460
e 93 577
e 93 578
e 93 261
e 93 264
e 93 877
e 93 879
e 93 273
e 93 276
e 93 469
e 93 470
e 93 729
e 93 732
e 94 579
e 94 580
e 94 262
e 94 263
e 94 878
e 94 880
e 94 274
e 94 275
e 94 471
e 94 472
e 94 730
e 94 731
e 95 849
e 95 357
e 95 358
e 95 329
e 95 330
e 95 529
e 95 850
e 95 531
e 95 309
e 95 310
e 95 485
e 95 486
e 96 488
e 96 487
e 96 359
e 96 360
e 96 331
e 96 332
e 96 530
e 96 851
e 96 532
e 96 311
e 96 312
e 96 852
e 97 709
e 97 711
e 97 781
e 97 429
e 97 430
e 97 783
e 97 405
e 97 407
e 98 710
e 98 712
e 98 782
e 98 431
e 98 432
e 98 406
e 98 408
e 98 784
e 99 241
e 99 441
e 99 244
e 99 249
e 99 442
e 99 252
e 100 242
e 100 243
e 100 250
e 100 443
e 100 444
e 100 251
e 101 869
e 101 871
e 101 888
e 101 625
e 101 626
e 101 277
e 101 280
e 101 885
e 101 253
e 101 254
e 102 870
e 102 872
e 102 887
e 102 627
e 102 628
e 102 278
e 102 279
e 102 886
e 102 255
e 102 256
e 103 193
e 103 621
e 103 195
e 103 389
e 103 390
e 103 553
e 103 554
e 103 205
e 103 206
e 103 623
e 104 194
e 104 196
e 104 391
e 104 392
e 104 555
e 104 556
e 104 622
e 104 207
e 104 208
e 104 624
e 105 525
e 105 527
e 105 529
e 105 532
e 105 861
e 105 863
e 106 526
e 106 528
e 106 530
e 106 531
e 106 862
e 106 864
e 107 705
e 107 708
e 107 389
e 107 391
e 107 872
e 107 745
e 107 746
e 107 401
e 107 403
e 107 629
e 107 631
e 107 889
e 107 869
e 107 891
e 108 706
e 108 707
e 108 390
e 108 871
e 108 392
e 108 747
e 108 748
e 108 402
e 108 404
e 108 630
e 108 632
e 108 890
e 108 892
e 108 870
e 109 297
e 109 299
e 109 653
e 109 761
e 109 656
e 109 497
e 109 393
e 109 500
e 109 309
e 109 311
e 109 633
e 109 635
e 109 764
e 109 477
e 109 395
e 109 479
e 110 312
e 110 396
e 110 394
e 110 300
e 110 654
e 110 655
e 110 498
e 110 499
e 110 310
e 110 298
e 110 762
e 110 634
e 110 763
e 110 636
e 110 478
e 110 480
e 111 417
e 111 419
e 111 517
e 111 518
e 111 721
e 111 723
e 111 285
e 111 287
e 112 418
e 112 420
e 112 519
e 112 520
e 112 722
e 112 724
e 112 286
e 112 288
e 113 865
e 113 867
e 113 197
e 113 200
e 113 589
e 113 301
e 113 302
e 113 591
e 113 337
e 113 340
e 113 853
e 113 854
e 114 866
e 114 868
e 114 198
e 114 199
e 114 590
e 114 303
e 114 304
e 114 338
e 114 339
e 114 855
e 114 856
e 114 592
e 115 897
e 115 900
e 115 553
e 115 749
e 115 555
e 115 237
e 115 751
e 115 240
e 115 373
e 115 374
e 116 898
e 116 899
e 116 554
e 116 556
e 116 238
e 116 239
e 116 750
e 116 375
e 116 376
e 116 752
e 117 556
e 117 485
e 117 487
e 117 648
e 117 425
e 117 621
e 117 428
e 117 429
e 117 431
e 117 624
e 117 209
e 117 553
e 117 212
e 117 437
e 117 440
e 117 645
e 118 486
e 118 647
e 118 488
e 118 426
e 118 427
e 118 430
e 118 623
e 118 432
e 118 646
e 118 210
e 118 211
e 118 438
e 118 439
e 118 554
e 118 555
e 118 622
e 119 321
e 119 323
e 119 421
e 119 424
e 119 809
e 119 765
e 119 811
e 119 369
e 119 372
e 119 633
e 119 636
e 119 445
e 119 767
e 119 448
e 120 322
e 120 324
e 120 422
e 120 423
e 120 810
e 120 812
e 120 766
e 120 370
e 120 371
e 120 634
e 120 635
e 120 446
e 120 447
e 120 768
e 121 365
e 121 317
e 121 367
e 121 320
e 122 368
e 122 318
e 122 319
e 122 366
e 123 833
e 123 836
e 123 389
e 123 392
e 123 681
e 123 684
e 123 205
e 123 207
e 123 625
e 123 627
e 123 181
e 123 183
e 124 834
e 124 835
e 124 390
e 124 391
e 124 682
e 124 683
e 124 206
e 124 208
e 124 626
e 124 628
e 124 182
e 124 184
e 125 481
e 125 513
e 125 483
e 125 548
e 125 841
e 125 844
e 125 515
e 125 849
e 125 851
e 125 545
e 126 482
e 126 547
e 126 516
e 126 546
e 126 842
e 126 843
e 126 850
e 126 484
e 126 514
e 126 852
e 127 357
e 127 359
e 127 809
e 127 605
e 127 812
e 127 849
e 127 825
e 127 852
e 127 341
e 127 375
e 127 344
e 127 601
e 127 373
e 127 827
e 127 604
e 127 189
e 127 607
e 127 192
e 128 828
e 128 358
e 128 360
e 128 810
e 128 811
e 128 826
e 128 606
e 128 850
e 128 851
e 128 342
e 128 343
e 128 376
e 128 602
e 128 603
e 128 608
e 128 190
e 128 191
e 128 374
e 129 769
e 129 772
e 129 376
e 129 760
e 129 725
e 129 757
e 129 728
e 129 857
e 129 373
e 129 859
e 129 637
e 129 638
e 130 770
e 130 771
e 130 860
e 130 375
e 130 759
e 130 758
e 130 726
e 130 727
e 130 858
e 130 640
e 130 639
e 130 374
e 131 353
e 131 356
e 131 441
e 131 345
e 131 347
e 131 443
e 132 354
e 132 355
e 132 444
e 132 442
e 132 346
e 132 348
e 133 860
e 133 733
e 133 477
e 133 593
e 133 594
e 133 853
e 133 855
e 133 857
e 133 480
e 133 669
e 133 735
e 133 672
e 134 734
e 134 670
e 134 595
e 134 596
e 134 479
e 134 854
e 134 856
e 134 858
e 134 859
e 134 478
e 134 671
e 134 736
e 135 641
e 135 593
e 135 644
e 135 873
e 135 876
e 135 845
e 135 847
e 135 433
e 135 434
e 135 595
e 135 756
e 135 213
e 135 215
e 135 632
e 135 345
e 135 629
e 135 348
e 135 285
e 135 753
e 135 288
e 136 642
e 136 643
e 136 754
e 136 874
e 136 875
e 136 848
e 136 755
e 136 846
e 136 594
e 136 435
e 136 436
e 136 214
e 136 631
e 136 216
e 136 346
e 136 347
e 136 596
e 136 286
e 136 287
e 136 630
e 137 481
e 137 484
e 137 233
e 137 685
e 137 236
e 137 301
e 137 303
e 137 688
e 138 482
e 138 483
e 138 686
e 138 234
e 138 235
e 138 302
e 138 687
e 138 304
e 139 845
e 139 269
e 139 271
e 139 848
e 139 181
e 139 184
e 139 573
e 139 575
e 140 846
e 140 270
e 140 847
e 140 272
e 140 182
e 140 183
e 140 574
e 140 576
e 141 469
e 141 471
e 142 470
e 142 472
e 143 321
e 143 324
e 143 818
e 143 329
e 143 861
e 143 331
e 143 493
e 143 495
e 143 817
e 143 585
e 143 381
e 143 587
e 143 383
e 143 864
e 144 322
e 144 323
e 144 588
e 144 862
e 144 330
e 144 332
e 144 494
e 144 496
e 144 819
e 144 820
e 144 586
e 144 382
e 144 863
e 144 384
e 145 417
e 145 737
e 145 739
e 145 420
e 145 517
e 145 519
e 145 829
e 145 745
e 145 589
e 145 747
e 145 365
e 145 368
e 145 661
e 145 664
e 145 592
e 145 253
e 145 830
e 145 255
e 146 418
e 146 419
e 146 740
e 146 518
e 146 832
e 146 520
e 146 746
e 146 748
e 146 366
e 146 367
e 146 590
e 146 662
e 146 591
e 146 663
e 146 738
e 146 254
e 146 831
e 146 256
e 147 577
e 147 593
e 147 579
e 147 740
e 147 485
e 147 488
e 147 269
e 147 272
e 147 465
e 147 596
e 147 468
e 147 469
e 147 472
e 147 829
e 147 737
e 147 831
e 148 578
e 148 739
e 148 580
e 148 486
e 148 487
e 148 594
e 148 270
e 148 271
e 148 466
e 148 467
e 148 595
e 148 470
e 148 471
e 148 738
e 148 830
e 148 832
e 149 449
e 149 513
e 149 452
e 149 817
e 149 433
e 149 435
e 149 516
e 149 819
e 149 381
e 149 384
e 150 450
e 150 451
e 150 514
e 150 515
e 150 434
e 150 818
e 150 436
e 150 820
e 150 382
e 150 383
e 151 652
e 151 748
e 151 457
e 151 637
e 151 460
e 151 745
e 151 817
e 151 649
e 151 820
e 151 789
e 151 792
e 151 217
e 151 220
e 151 573
e 151 639
e 151 576
e 152 651
e 152 458
e 152 459
e 152 746
e 152 747
e 152 638
e 152 818
e 152 819
e 152 790
e 152 791
e 152 650
e 152 218
e 152 219
e 152 574
e 152 575
e 152 640
e 153 493
e 153 496
e 153 721
e 153 724
e 153 537
e 153 540
e 154 494
e 154 495
e 154 722
e 154 723
e 154 538
e 154 539
e 155 609
e 155 611
e 155 357
e 155 360
e 155 657
e 155 660
e 155 889
e 155 892
e 155 765
e 155 768
e 156 610
e 156 612
e 156 358
e 156 359
e 156 658
e 156 659
e 156 890
e 156 891
e 156 766
e 156 767
e 157 521
e 157 524
e 157 877
e 157 880
e 157 625
e 157 628
e 157 853
e 157 856
e 158 522
e 158 523
e 158 878
e 158 879
e 158 626
e 158 627
e 158 854
e 158 855
e 159 517
e 159 520
e 159 733
e 159 305
e 159 308
e 159 409
e 159 412
e 159 541
e 159 736
e 159 544
e 160 518
e 160 519
e 160 734
e 160 306
e 160 307
e 160 735
e 160 410
e 160 411
e 160 542
e 160 543
e 161 289
e 161 291
e 161 549
e 161 552
e 161 525
e 161 301
e 161 304
e 161 561
e 161 563
e 161 473
e 161 475
e 161 528
e 162 290
e 162 292
e 162 550
e 162 551
e 162 302
e 162 303
e 162 526
e 162 562
e 162 564
e 162 527
e 162 474
e 162 476
e 163 777
e 163 780
e 163 801
e 163 804
e 163 805
e 163 807
e 163 433
e 163 436
e 163 825
e 163 828
e 163 865
e 163 201
e 163 204
e 163 868
e 163 213
e 163 216
e 163 473
e 163 476
e 163 609
e 163 612
e 163 637
e 163 640
e 164 778
e 164 779
e 164 802
e 164 803
e 164 806
e 164 808
e 164 434
e 164 435
e 164 826
e 164 827
e 164 866
e 164 202
e 164 203
e 164 867
e 164 214
e 164 215
e 164 474
e 164 475
e 164 610
e 164 611
e 164 638
e 164 639
e 165 289
e 165 292
e 165 773
e 165 774
e 165 808
e 165 297
e 165 300
e 165 429
e 165 432
e 165 620
e 165 617
e 165 840
e 165 837
e 165 805
e 165 893
e 165 894
e 166 290
e 166 291
e 166 806
e 166 775
e 166 776
e 166 298
e 166 299
e 166 430
e 166 431
e 166 807
e 166 839
e 166 618
e 166 896
e 166 619
e 166 895
e 166 838
e 167 257
e 167 260
e 167 393
e 167 701
e 167 396
e 167 696
e 167 501
e 167 504
e 167 441
e 167 693
e 167 444
e 167 221
e 167 704
e 167 224
e 168 258
e 168 259
e 168 695
e 168 394
e 168 395
e 168 702
e 168 502
e 168 503
e 168 442
e 168 443
e 168 703
e 168 222
e 168 223
e 168 694
e 169 784
e 169 800
e 169 709
e 169 781
e 169 712
e 169 749
e 169 205
e 169 797
e 169 208
e 169 597
e 169 600
e 169 752
e 169 253
e 169 256
e 170 751
e 170 783
e 170 782
e 170 710
e 170 711
e 170 798
e 170 799
e 170 206
e 170 207
e 170 750
e 170 598
e 170 599
e 170 254
e 170 255
e 171 193
e 171 196
e 171 677
e 171 680
e 171 329
e 171 332
e 171 569
e 171 572
e 172 194
e 172 195
e 172 678
e 172 679
e 172 330
e 172 331
e 172 570
e 172 571
e 173 325
e 173 328
e 173 557
e 173 560
e 173 405
e 173 408
e 174 326
e 174 327
e 174 558
e 174 559
e 174 406
e 174 407
e 175 773
e 175 775
e 175 489
e 175 492
e 175 377
e 175 380
e 175 605
e 175 608
e 176 774
e 176 776
e 176 490
e 176 491
e 176 378
e 176 379
e 176 606
e 176 607
e 177 673
e 177 676
e 177 333
e 177 336
e 177 401
e 177 404
e 177 309
e 177 312
e 177 893
e 177 895
e 178 674
e 178 675
e 178 334
e 178 335
e 178 402
e 178 403
e 178 310
e 178 311
e 178 894
e 178 896
e 179 577
e 179 580
e 179 773
e 179 776
e 179 585
e 179 893
e 179 588
e 179 561
e 179 896
e 179 564
e 179 185
e 179 188
e 179 829
e 179 832
e 180 578
e 180 579
e 180 774
e 180 775
e 180 586
e 180 587
e 180 894
e 180 562
e 180 563
e 180 895
e 180 186
e 180 187
e 180 830
e 180 831